p cnf 1486
-19 -467
-20 -470
-21 -473
-22 -476
-23 -479
-24 -482
-25 -485
-26 -488
-27 -491
-28 -494
-29 -497
-30 -500
-31 -503
-32 -506
-33 -509
-34 -512
-35 -515
-36 -518
-37 519
-38 520
-39 521
-40 522
-41 523
-42 524
-43 525
-44 526
-45 527
-46 528
-47 529
-48 530
-49 531
-50 532
-51 533
-52 -20
-52 -21
20 21 52
-53 -22
-53 -23
22 23 53
-54 -24
-54 -25
24 25 54
-55 -26
-55 -27
26 27 55
-56 -28
-56 -29
28 29 56
-57 -30
-57 -31
30 31 57
-58 -32
-58 -33
32 33 58
-59 -34
-59 -35
34 35 59
-60 -36
-60 -37
36 37 60
-61 -38
-61 -39
38 39 61
-62 -40
-62 -41
40 41 62
-63 -42
-63 -43
42 43 63
-64 -44
-64 -45
44 45 64
-65 -46
-65 -47
46 47 65
-66 -48
-66 -49
48 49 66
-67 -50
-67 -51
50 51 67
-68 52
-68 53
-52 -53 68
-69 54
-69 55
-54 -55 69
-70 56
-70 57
-56 -57 70
-71 58
-71 59
-58 -59 71
-72 60
-72 61
-60 -61 72
-73 62
-73 63
-62 -63 73
-74 64
-74 65
-64 -65 74
-75 66
-75 67
-66 -67 75
-76 68
-76 69
-68 -69 76
-77 70
-77 71
-70 -71 77
-78 72
-78 73
-72 -73 78
-79 74
-79 75
-74 -75 79
-80 76
-80 77
-76 -77 80
-81 78
-81 79
-78 -79 81
-82 80
-82 81
-80 -81 82
-83 -19
-83 20
19 -20 83
-84 19
-84 -20
-19 20 84
-85 -83
-85 -84
83 84 85
-86 19
-86 20
-19 -20 86
-87 -19
-87 -85
19 85 87
-88 19
-88 85
-19 -85 88
-89 -87
-89 -88
87 88 89
-90 19
-90 -85
-19 85 90
-91 -86
-91 -90
86 90 91
-92 -20
-92 21
20 -21 92
-93 20
-93 -21
-20 21 93
-94 -92
-94 -93
92 93 94
-95 20
-95 21
-20 -21 95
-96 91
-96 -94
-91 94 96
-97 -91
-97 94
91 -94 97
-98 -96
-98 -97
96 97 98
-99 -91
-99 -94
91 94 99
-100 -95
-100 -99
95 99 100
-101 -21
-101 22
21 -22 101
-102 21
-102 -22
-21 22 102
-103 -101
-103 -102
101 102 103
-104 21
-104 22
-21 -22 104
-105 100
-105 -103
-100 103 105
-106 -100
-106 103
100 -103 106
-107 -105
-107 -106
105 106 107
-108 -100
-108 -103
100 103 108
-109 -104
-109 -108
104 108 109
-110 -22
-110 23
22 -23 110
-111 22
-111 -23
-22 23 111
-112 -110
-112 -111
110 111 112
-113 22
-113 23
-22 -23 113
-114 109
-114 -112
-109 112 114
-115 -109
-115 112
109 -112 115
-116 -114
-116 -115
114 115 116
-117 -109
-117 -112
109 112 117
-118 -113
-118 -117
113 117 118
-119 -23
-119 24
23 -24 119
-120 23
-120 -24
-23 24 120
-121 -119
-121 -120
119 120 121
-122 23
-122 24
-23 -24 122
-123 118
-123 -121
-118 121 123
-124 -118
-124 121
118 -121 124
-125 -123
-125 -124
123 124 125
-126 -118
-126 -121
118 121 126
-127 -122
-127 -126
122 126 127
-128 -24
-128 25
24 -25 128
-129 24
-129 -25
-24 25 129
-130 -128
-130 -129
128 129 130
-131 24
-131 25
-24 -25 131
-132 127
-132 -130
-127 130 132
-133 -127
-133 130
127 -130 133
-134 -132
-134 -133
132 133 134
-135 -127
-135 -130
127 130 135
-136 -131
-136 -135
131 135 136
-137 -25
-137 26
25 -26 137
-138 25
-138 -26
-25 26 138
-139 -137
-139 -138
137 138 139
-140 25
-140 26
-25 -26 140
-141 136
-141 -139
-136 139 141
-142 -136
-142 139
136 -139 142
-143 -141
-143 -142
141 142 143
-144 -136
-144 -139
136 139 144
-145 -140
-145 -144
140 144 145
-146 -26
-146 27
26 -27 146
-147 26
-147 -27
-26 27 147
-148 -146
-148 -147
146 147 148
-149 26
-149 27
-26 -27 149
-150 145
-150 -148
-145 148 150
-151 -145
-151 148
145 -148 151
-152 -150
-152 -151
150 151 152
-153 -145
-153 -148
145 148 153
-154 -149
-154 -153
149 153 154
-155 -27
-155 28
27 -28 155
-156 27
-156 -28
-27 28 156
-157 -155
-157 -156
155 156 157
-158 27
-158 28
-27 -28 158
-159 154
-159 -157
-154 157 159
-160 -154
-160 157
154 -157 160
-161 -159
-161 -160
159 160 161
-162 -154
-162 -157
154 157 162
-163 -158
-163 -162
158 162 163
-164 -28
-164 29
28 -29 164
-165 28
-165 -29
-28 29 165
-166 -164
-166 -165
164 165 166
-167 28
-167 29
-28 -29 167
-168 163
-168 -166
-163 166 168
-169 -163
-169 166
163 -166 169
-170 -168
-170 -169
168 169 170
-171 -163
-171 -166
163 166 171
-172 -167
-172 -171
167 171 172
-173 -29
-173 30
29 -30 173
-174 29
-174 -30
-29 30 174
-175 -173
-175 -174
173 174 175
-176 29
-176 30
-29 -30 176
-177 172
-177 -175
-172 175 177
-178 -172
-178 175
172 -175 178
-179 -177
-179 -178
177 178 179
-180 -172
-180 -175
172 175 180
-181 -176
-181 -180
176 180 181
-182 -30
-182 31
30 -31 182
-183 30
-183 -31
-30 31 183
-184 -182
-184 -183
182 183 184
-185 30
-185 31
-30 -31 185
-186 181
-186 -184
-181 184 186
-187 -181
-187 184
181 -184 187
-188 -186
-188 -187
186 187 188
-189 -181
-189 -184
181 184 189
-190 -185
-190 -189
185 189 190
-191 -31
-191 32
31 -32 191
-192 31
-192 -32
-31 32 192
-193 -191
-193 -192
191 192 193
-194 31
-194 32
-31 -32 194
-195 190
-195 -193
-190 193 195
-196 -190
-196 193
190 -193 196
-197 -195
-197 -196
195 196 197
-198 -190
-198 -193
190 193 198
-199 -194
-199 -198
194 198 199
-200 -32
-200 33
32 -33 200
-201 32
-201 -33
-32 33 201
-202 -200
-202 -201
200 201 202
-203 32
-203 33
-32 -33 203
-204 199
-204 -202
-199 202 204
-205 -199
-205 202
199 -202 205
-206 -204
-206 -205
204 205 206
-207 -199
-207 -202
199 202 207
-208 -203
-208 -207
203 207 208
-209 -33
-209 34
33 -34 209
-210 33
-210 -34
-33 34 210
-211 -209
-211 -210
209 210 211
-212 33
-212 34
-33 -34 212
-213 208
-213 -211
-208 211 213
-214 -208
-214 211
208 -211 214
-215 -213
-215 -214
213 214 215
-216 -208
-216 -211
208 211 216
-217 -212
-217 -216
212 216 217
-218 -34
-218 35
34 -35 218
-219 34
-219 -35
-34 35 219
-220 -218
-220 -219
218 219 220
-221 34
-221 35
-34 -35 221
-222 217
-222 -220
-217 220 222
-223 -217
-223 220
217 -220 223
-224 -222
-224 -223
222 223 224
-225 -217
-225 -220
217 220 225
-226 -221
-226 -225
221 225 226
-227 -35
-227 36
35 -36 227
-228 35
-228 -36
-35 36 228
-229 -227
-229 -228
227 228 229
-230 35
-230 36
-35 -36 230
-231 226
-231 -229
-226 229 231
-232 -226
-232 229
226 -229 232
-233 -231
-233 -232
231 232 233
-234 -226
-234 -229
226 229 234
-235 -230
-235 -234
230 234 235
-236 -36
-236 37
36 -37 236
-237 36
-237 -37
-36 37 237
-238 -236
-238 -237
236 237 238
-239 36
-239 37
-36 -37 239
-240 235
-240 -238
-235 238 240
-241 -235
-241 238
235 -238 241
-242 -240
-242 -241
240 241 242
-243 -235
-243 -238
235 238 243
-244 -239
-244 -243
239 243 244
-245 -37
-245 38
37 -38 245
-246 37
-246 -38
-37 38 246
-247 -245
-247 -246
245 246 247
-248 37
-248 38
-37 -38 248
-249 244
-249 -247
-244 247 249
-250 -244
-250 247
244 -247 250
-251 -249
-251 -250
249 250 251
-252 -244
-252 -247
244 247 252
-253 -248
-253 -252
248 252 253
-254 -38
-254 39
38 -39 254
-255 38
-255 -39
-38 39 255
-256 -254
-256 -255
254 255 256
-257 38
-257 39
-38 -39 257
-258 253
-258 -256
-253 256 258
-259 -253
-259 256
253 -256 259
-260 -258
-260 -259
258 259 260
-261 -253
-261 -256
253 256 261
-262 -257
-262 -261
257 261 262
-263 -39
-263 40
39 -40 263
-264 39
-264 -40
-39 40 264
-265 -263
-265 -264
263 264 265
-266 39
-266 40
-39 -40 266
-267 262
-267 -265
-262 265 267
-268 -262
-268 265
262 -265 268
-269 -267
-269 -268
267 268 269
-270 -262
-270 -265
262 265 270
-271 -266
-271 -270
266 270 271
-272 -40
-272 41
40 -41 272
-273 40
-273 -41
-40 41 273
-274 -272
-274 -273
272 273 274
-275 40
-275 41
-40 -41 275
-276 271
-276 -274
-271 274 276
-277 -271
-277 274
271 -274 277
-278 -276
-278 -277
276 277 278
-279 -271
-279 -274
271 274 279
-280 -275
-280 -279
275 279 280
-281 -41
-281 42
41 -42 281
-282 41
-282 -42
-41 42 282
-283 -281
-283 -282
281 282 283
-284 41
-284 42
-41 -42 284
-285 280
-285 -283
-280 283 285
-286 -280
-286 283
280 -283 286
-287 -285
-287 -286
285 286 287
-288 -280
-288 -283
280 283 288
-289 -284
-289 -288
284 288 289
-290 -42
-290 43
42 -43 290
-291 42
-291 -43
-42 43 291
-292 -290
-292 -291
290 291 292
-293 42
-293 43
-42 -43 293
-294 289
-294 -292
-289 292 294
-295 -289
-295 292
289 -292 295
-296 -294
-296 -295
294 295 296
-297 -289
-297 -292
289 292 297
-298 -293
-298 -297
293 297 298
-299 -43
-299 44
43 -44 299
-300 43
-300 -44
-43 44 300
-301 -299
-301 -300
299 300 301
-302 43
-302 44
-43 -44 302
-303 298
-303 -301
-298 301 303
-304 -298
-304 301
298 -301 304
-305 -303
-305 -304
303 304 305
-306 -298
-306 -301
298 301 306
-307 -302
-307 -306
302 306 307
-308 -44
-308 45
44 -45 308
-309 44
-309 -45
-44 45 309
-310 -308
-310 -309
308 309 310
-311 44
-311 45
-44 -45 311
-312 307
-312 -310
-307 310 312
-313 -307
-313 310
307 -310 313
-314 -312
-314 -313
312 313 314
-315 -307
-315 -310
307 310 315
-316 -311
-316 -315
311 315 316
-317 -45
-317 46
45 -46 317
-318 45
-318 -46
-45 46 318
-319 -317
-319 -318
317 318 319
-320 45
-320 46
-45 -46 320
-321 316
-321 -319
-316 319 321
-322 -316
-322 319
316 -319 322
-323 -321
-323 -322
321 322 323
-324 -316
-324 -319
316 319 324
-325 -320
-325 -324
320 324 325
-326 -46
-326 47
46 -47 326
-327 46
-327 -47
-46 47 327
-328 -326
-328 -327
326 327 328
-329 46
-329 47
-46 -47 329
-330 325
-330 -328
-325 328 330
-331 -325
-331 328
325 -328 331
-332 -330
-332 -331
330 331 332
-333 -325
-333 -328
325 328 333
-334 -329
-334 -333
329 333 334
-335 -47
-335 48
47 -48 335
-336 47
-336 -48
-47 48 336
-337 -335
-337 -336
335 336 337
-338 47
-338 48
-47 -48 338
-339 334
-339 -337
-334 337 339
-340 -334
-340 337
334 -337 340
-341 -339
-341 -340
339 340 341
-342 -334
-342 -337
334 337 342
-343 -338
-343 -342
338 342 343
-344 -48
-344 49
48 -49 344
-345 48
-345 -49
-48 49 345
-346 -344
-346 -345
344 345 346
-347 48
-347 49
-48 -49 347
-348 343
-348 -346
-343 346 348
-349 -343
-349 346
343 -346 349
-350 -348
-350 -349
348 349 350
-351 -343
-351 -346
343 346 351
-352 -347
-352 -351
347 351 352
-353 -49
-353 50
49 -50 353
-354 49
-354 -50
-49 50 354
-355 -353
-355 -354
353 354 355
-356 49
-356 50
-49 -50 356
-357 352
-357 -355
-352 355 357
-358 -352
-358 355
352 -355 358
-359 -357
-359 -358
357 358 359
-360 -352
-360 -355
352 355 360
-361 -356
-361 -360
356 360 361
-362 -50
-362 51
50 -51 362
-363 50
-363 -51
-50 51 363
-364 -362
-364 -363
362 363 364
-365 50
-365 51
-50 -51 365
-366 361
-366 -364
-361 364 366
-367 -361
-367 364
361 -364 367
-368 -366
-368 -367
366 367 368
-369 -361
-369 -364
361 364 369
-370 -365
-370 -369
365 369 370
-371 19
-371 -89
-19 89 371
-372 -19
-372 21
19 -21 372
-373 -371
-373 -372
371 372 373
-374 19
-374 -98
-19 98 374
-375 -19
-375 22
19 -22 375
-376 -374
-376 -375
374 375 376
-377 19
-377 -107
-19 107 377
-378 -19
-378 23
19 -23 378
-379 -377
-379 -378
377 378 379
-380 19
-380 -116
-19 116 380
-381 -19
-381 24
19 -24 381
-382 -380
-382 -381
380 381 382
-383 19
-383 -125
-19 125 383
-384 -19
-384 25
19 -25 384
-385 -383
-385 -384
383 384 385
-386 19
-386 -134
-19 134 386
-387 -19
-387 26
19 -26 387
-388 -386
-388 -387
386 387 388
-389 19
-389 -143
-19 143 389
-390 -19
-390 27
19 -27 390
-391 -389
-391 -390
389 390 391
-392 19
-392 -152
-19 152 392
-393 -19
-393 28
19 -28 393
-394 -392
-394 -393
392 393 394
-395 19
-395 -161
-19 161 395
-396 -19
-396 29
19 -29 396
-397 -395
-397 -396
395 396 397
-398 19
-398 -170
-19 170 398
-399 -19
-399 30
19 -30 399
-400 -398
-400 -399
398 399 400
-401 19
-401 -179
-19 179 401
-402 -19
-402 31
19 -31 402
-403 -401
-403 -402
401 402 403
-404 19
-404 -188
-19 188 404
-405 -19
-405 32
19 -32 405
-406 -404
-406 -405
404 405 406
-407 19
-407 -197
-19 197 407
-408 -19
-408 33
19 -33 408
-409 -407
-409 -408
407 408 409
-410 19
-410 -206
-19 206 410
-411 -19
-411 34
19 -34 411
-412 -410
-412 -411
410 411 412
-413 19
-413 -215
-19 215 413
-414 -19
-414 35
19 -35 414
-415 -413
-415 -414
413 414 415
-416 19
-416 -224
-19 224 416
-417 -19
-417 36
19 -36 417
-418 -416
-418 -417
416 417 418
-419 19
-419 -233
-19 233 419
-420 -19
-420 37
19 -37 420
-421 -419
-421 -420
419 420 421
-422 19
-422 -242
-19 242 422
-423 -19
-423 38
19 -38 423
-424 -422
-424 -423
422 423 424
-425 19
-425 -251
-19 251 425
-426 -19
-426 39
19 -39 426
-427 -425
-427 -426
425 426 427
-428 19
-428 -260
-19 260 428
-429 -19
-429 40
19 -40 429
-430 -428
-430 -429
428 429 430
-431 19
-431 -269
-19 269 431
-432 -19
-432 41
19 -41 432
-433 -431
-433 -432
431 432 433
-434 19
-434 -278
-19 278 434
-435 -19
-435 42
19 -42 435
-436 -434
-436 -435
434 435 436
-437 19
-437 -287
-19 287 437
-438 -19
-438 43
19 -43 438
-439 -437
-439 -438
437 438 439
-440 19
-440 -296
-19 296 440
-441 -19
-441 44
19 -44 441
-442 -440
-442 -441
440 441 442
-443 19
-443 -305
-19 305 443
-444 -19
-444 45
19 -45 444
-445 -443
-445 -444
443 444 445
-446 19
-446 -314
-19 314 446
-447 -19
-447 46
19 -46 447
-448 -446
-448 -447
446 447 448
-449 19
-449 -323
-19 323 449
-450 -19
-450 47
19 -47 450
-451 -449
-451 -450
449 450 451
-452 19
-452 -332
-19 332 452
-453 -19
-453 48
19 -48 453
-454 -452
-454 -453
452 453 454
-455 19
-455 -341
-19 341 455
-456 -19
-456 49
19 -49 456
-457 -455
-457 -456
455 456 457
-458 19
-458 -350
-19 350 458
-459 -19
-459 50
19 -50 459
-460 -458
-460 -459
458 459 460
-461 19
-461 -359
-19 359 461
-462 -19
-462 51
19 -51 462
-463 -461
-463 -462
461 462 463
-464 19
-464 -368
-19 368 464
-465 1
-465 82
-1 -82 465
-466 -82
-466 83
82 -83 466
-467 -465
-467 -466
465 466 467
-468 2
-468 82
-2 -82 468
-469 -82
-469 -373
82 373 469
-470 -468
-470 -469
468 469 470
-471 3
-471 82
-3 -82 471
-472 -82
-472 -376
82 376 472
-473 -471
-473 -472
471 472 473
-474 4
-474 82
-4 -82 474
-475 -82
-475 -379
82 379 475
-476 -474
-476 -475
474 475 476
-477 5
-477 82
-5 -82 477
-478 -82
-478 -382
82 382 478
-479 -477
-479 -478
477 478 479
-480 6
-480 82
-6 -82 480
-481 -82
-481 -385
82 385 481
-482 -480
-482 -481
480 481 482
-483 7
-483 82
-7 -82 483
-484 -82
-484 -388
82 388 484
-485 -483
-485 -484
483 484 485
-486 8
-486 82
-8 -82 486
-487 -82
-487 -391
82 391 487
-488 -486
-488 -487
486 487 488
-489 9
-489 82
-9 -82 489
-490 -82
-490 -394
82 394 490
-491 -489
-491 -490
489 490 491
-492 10
-492 82
-10 -82 492
-493 -82
-493 -397
82 397 493
-494 -492
-494 -493
492 493 494
-495 11
-495 82
-11 -82 495
-496 -82
-496 -400
82 400 496
-497 -495
-497 -496
495 496 497
-498 12
-498 82
-12 -82 498
-499 -82
-499 -403
82 403 499
-500 -498
-500 -499
498 499 500
-501 13
-501 82
-13 -82 501
-502 -82
-502 -406
82 406 502
-503 -501
-503 -502
501 502 503
-504 14
-504 82
-14 -82 504
-505 -82
-505 -409
82 409 505
-506 -504
-506 -505
504 505 506
-507 15
-507 82
-15 -82 507
-508 -82
-508 -412
82 412 508
-509 -507
-509 -508
507 508 509
-510 16
-510 82
-16 -82 510
-511 -82
-511 -415
82 415 511
-512 -510
-512 -511
510 511 512
-513 17
-513 82
-17 -82 513
-514 -82
-514 -418
82 418 514
-515 -513
-515 -514
513 514 515
-516 18
-516 82
-18 -82 516
-517 -82
-517 -421
82 421 517
-518 -516
-518 -517
516 517 518
-519 -82
-519 -424
82 424 519
-520 -82
-520 -427
82 427 520
-521 -82
-521 -430
82 430 521
-522 -82
-522 -433
82 433 522
-523 -82
-523 -436
82 436 523
-524 -82
-524 -439
82 439 524
-525 -82
-525 -442
82 442 525
-526 -82
-526 -445
82 445 526
-527 -82
-527 -448
82 448 527
-528 -82
-528 -451
82 451 528
-529 -82
-529 -454
82 454 529
-530 -82
-530 -457
82 457 530
-531 -82
-531 -460
82 460 531
-532 -82
-532 -463
82 463 532
-533 -82
-533 464
82 -464 533
-534 -51
-534 370
51 -370 534
-535 19
-535 -534
-19 534 535
535
